
  22    4
  10   10   10   10

   0   0   0   0   0   5 2 3 4 5 9 
   2  10  10  10  10   5 14 11 10 8 7 
   3  10  10  10  10   4 17 11 10 6 
   3  10  10  10  10   4 17 15 14 13 
   9  10  10  10  10   4 17 16 14 13 
   2  10  10  10  10   3 15 14 13 
   5  10  10  10  10   4 21 19 17 15 
   9  10  10  10  10   2 15 13 
   1  10  10  10  10   2 20 12 
  10  10  10  10  10   3 21 19 16 
   7  10  10  10  10   2 19 16 
   2  10  10  10  10   1 13 
   3  10  10  10  10   3 21 19 18 
   4  10  10  10  10   3 21 19 18 
   3  10  10  10  10   1 16 
   2  10  10  10  10   2 20 18 
   3  10  10  10  10   1 20 
  10  10  10  10  10   1 22
   7  10  10  10  10   1 22
  10  10  10  10  10   1 22
   3  10  10  10  10   1 22
   0   0   0   0   0   0 
